p cnf 500 800
6 55 66 101 102 0
6 55 66 101 -102 0
6 55 66 -101 102 0
6 55 66 -101 -102 0
6 62 -66 103 104 0
6 62 -66 103 -104 0
6 62 -66 -103 104 0
6 62 -66 -103 -104 0
-62 -66 68 105 106 0
-62 -66 68 105 -106 0
-62 -66 68 -105 106 0
-62 -66 68 -105 -106 0
6 8 -55 107 108 0
6 8 -55 107 -108 0
6 8 -55 -107 108 0
6 8 -55 -107 -108 0
8 58 70 109 110 0
8 58 70 109 -110 0
8 58 70 -109 110 0
8 58 70 -109 -110 0
-6 58 -70 111 112 0
-6 58 -70 111 -112 0
-6 58 -70 -111 112 0
-6 58 -70 -111 -112 0
-6 33 -58 113 114 0
-6 33 -58 113 -114 0
-6 33 -58 -113 114 0
-6 33 -58 -113 -114 0
-6 8 -33 115 116 0
-6 8 -33 115 -116 0
-6 8 -33 -115 116 0
-6 8 -33 -115 -116 0
-8 61 68 117 118 0
-8 61 68 117 -118 0
-8 61 68 -117 118 0
-8 61 68 -117 -118 0
-8 -61 68 119 120 0
-8 -61 68 119 -120 0
-8 -61 68 -119 120 0
-8 -61 68 -119 -120 0
35 42 51 121 122 0
35 42 51 121 -122 0
35 42 51 -121 122 0
35 42 51 -121 -122 0
30 -42 51 123 124 0
30 -42 51 123 -124 0
30 -42 51 -123 124 0
30 -42 51 -123 -124 0
30 -51 75 125 126 0
30 -51 75 125 -126 0
30 -51 75 -125 126 0
30 -51 75 -125 -126 0
20 -51 -75 127 128 0
20 -51 -75 127 -128 0
20 -51 -75 -127 128 0
20 -51 -75 -127 -128 0
-20 -51 -75 129 130 0
-20 -51 -75 129 -130 0
-20 -51 -75 -129 130 0
-20 -51 -75 -129 -130 0
-30 35 -68 131 132 0
-30 35 -68 131 -132 0
-30 35 -68 -131 132 0
-30 35 -68 -131 -132 0
34 -35 46 133 134 0
34 -35 46 133 -134 0
34 -35 46 -133 134 0
34 -35 46 -133 -134 0
-35 46 86 135 136 0
-35 46 86 135 -136 0
-35 46 86 -135 136 0
-35 46 86 -135 -136 0
-34 46 -68 137 138 0
-34 46 -68 137 -138 0
-34 46 -68 -137 138 0
-34 46 -68 -137 -138 0
-35 -46 -68 139 140 0
-35 -46 -68 139 -140 0
-35 -46 -68 -139 140 0
-35 -46 -68 -139 -140 0
-31 42 91 141 142 0
-31 42 91 141 -142 0
-31 42 91 -141 142 0
-31 42 91 -141 -142 0
-7 20 85 143 144 0
-7 20 85 143 -144 0
-7 20 85 -143 144 0
-7 20 85 -143 -144 0
-20 -24 -42 145 146 0
-20 -24 -42 145 -146 0
-20 -24 -42 -145 146 0
-20 -24 -42 -145 -146 0
18 -85 91 147 148 0
18 -85 91 147 -148 0
18 -85 91 -147 148 0
18 -85 91 -147 -148 0
-18 -24 -31 149 150 0
-18 -24 -31 149 -150 0
-18 -24 -31 -149 150 0
-18 -24 -31 -149 -150 0
-24 -31 -91 151 152 0
-24 -31 -91 151 -152 0
-24 -31 -91 -151 152 0
-24 -31 -91 -151 -152 0
-17 32 60 153 154 0
-17 32 60 153 -154 0
-17 32 60 -153 154 0
-17 32 60 -153 -154 0
-17 39 -60 155 156 0
-17 39 -60 155 -156 0
-17 39 -60 -155 156 0
-17 39 -60 -155 -156 0
36 50 56 157 158 0
36 50 56 157 -158 0
36 50 56 -157 158 0
36 50 56 -157 -158 0
-50 56 91 159 160 0
-50 56 91 159 -160 0
-50 56 91 -159 160 0
-50 56 91 -159 -160 0
-44 52 -54 161 162 0
-44 52 -54 161 -162 0
-44 52 -54 -161 162 0
-44 52 -54 -161 -162 0
-52 53 -54 163 164 0
-52 53 -54 163 -164 0
-52 53 -54 -163 164 0
-52 53 -54 -163 -164 0
71 79 -97 165 166 0
71 79 -97 165 -166 0
71 79 -97 -165 166 0
71 79 -97 -165 -166 0
9 71 -79 167 168 0
9 71 -79 167 -168 0
9 71 -79 -167 168 0
9 71 -79 -167 -168 0
-8 34 -71 169 170 0
-8 34 -71 169 -170 0
-8 34 -71 -169 170 0
-8 34 -71 -169 -170 0
34 -71 95 171 172 0
34 -71 95 171 -172 0
34 -71 95 -171 172 0
34 -71 95 -171 -172 0
-56 85 -95 173 174 0
-56 85 -95 173 -174 0
-56 85 -95 -173 174 0
-56 85 -95 -173 -174 0
-71 -85 -95 175 176 0
-71 -85 -95 175 -176 0
-71 -85 -95 -175 176 0
-71 -85 -95 -175 -176 0
-18 -56 87 177 178 0
-18 -56 87 177 -178 0
-18 -56 87 -177 178 0
-18 -56 87 -177 -178 0
-52 -56 87 179 180 0
-52 -56 87 179 -180 0
-52 -56 87 -179 180 0
-52 -56 87 -179 -180 0
-7 -76 -93 181 182 0
-7 -76 -93 181 -182 0
-7 -76 -93 -181 182 0
-7 -76 -93 -181 -182 0
3 9 86 183 184 0
3 9 86 183 -184 0
3 9 86 -183 184 0
3 9 86 -183 -184 0
3 -86 -96 185 186 0
3 -86 -96 185 -186 0
3 -86 -96 -185 186 0
3 -86 -96 -185 -186 0
3 12 67 187 188 0
3 12 67 187 -188 0
3 12 67 -187 188 0
3 12 67 -187 -188 0
-9 -40 67 189 190 0
-9 -40 67 189 -190 0
-9 -40 67 -189 190 0
-9 -40 67 -189 -190 0
-9 13 -67 191 192 0
-9 13 -67 191 -192 0
-9 13 -67 -191 192 0
-9 13 -67 -191 -192 0
-9 -67 -88 193 194 0
-9 -67 -88 193 -194 0
-9 -67 -88 -193 194 0
-9 -67 -88 -193 -194 0
-3 13 -96 195 196 0
-3 13 -96 195 -196 0
-3 13 -96 -195 196 0
-3 13 -96 -195 -196 0
2 12 27 197 198 0
2 12 27 197 -198 0
2 12 27 -197 198 0
2 12 27 -197 -198 0
-33 36 -74 199 200 0
-33 36 -74 199 -200 0
-33 36 -74 -199 200 0
-33 36 -74 -199 -200 0
-13 -29 -41 201 202 0
-13 -29 -41 201 -202 0
-13 -29 -41 -201 202 0
-13 -29 -41 -201 -202 0
11 52 -98 203 204 0
11 52 -98 203 -204 0
11 52 -98 -203 204 0
11 52 -98 -203 -204 0
-50 90 92 205 206 0
-50 90 92 205 -206 0
-50 90 92 -205 206 0
-50 90 92 -205 -206 0
-26 -47 -77 207 208 0
-26 -47 -77 207 -208 0
-26 -47 -77 -207 208 0
-26 -47 -77 -207 -208 0
5 42 -93 209 210 0
5 42 -93 209 -210 0
5 42 -93 -209 210 0
5 42 -93 -209 -210 0
28 36 -42 211 212 0
28 36 -42 211 -212 0
28 36 -42 -211 212 0
28 36 -42 -211 -212 0
5 28 -36 213 214 0
5 28 -36 213 -214 0
5 28 -36 -213 214 0
5 28 -36 -213 -214 0
-28 45 -73 215 216 0
-28 45 -73 215 -216 0
-28 45 -73 -215 216 0
-28 45 -73 -215 -216 0
5 -45 -73 217 218 0
5 -45 -73 217 -218 0
5 -45 -73 -217 218 0
5 -45 -73 -217 -218 0
7 25 -86 219 220 0
7 25 -86 219 -220 0
7 25 -86 -219 220 0
7 25 -86 -219 -220 0
-25 37 -86 221 222 0
-25 37 -86 221 -222 0
-25 37 -86 -221 222 0
-25 37 -86 -221 -222 0
19 -25 -37 223 224 0
19 -25 -37 223 -224 0
19 -25 -37 -223 224 0
19 -25 -37 -223 -224 0
7 -19 41 225 226 0
7 -19 41 225 -226 0
7 -19 41 -225 226 0
7 -19 41 -225 -226 0
12 -34 -47 227 228 0
12 -34 -47 227 -228 0
12 -34 -47 -227 228 0
12 -34 -47 -227 -228 0
-12 -34 -47 229 230 0
-12 -34 -47 229 -230 0
-12 -34 -47 -229 230 0
-12 -34 -47 -229 -230 0
-13 -60 93 231 232 0
-13 -60 93 231 -232 0
-13 -60 93 -231 232 0
-13 -60 93 -231 -232 0
19 -94 98 233 234 0
19 -94 98 233 -234 0
19 -94 98 -233 234 0
19 -94 98 -233 -234 0
92 -94 -98 235 236 0
92 -94 -98 235 -236 0
92 -94 -98 -235 236 0
92 -94 -98 -235 -236 0
67 -92 -98 237 238 0
67 -92 -98 237 -238 0
67 -92 -98 -237 238 0
67 -92 -98 -237 -238 0
1 26 55 239 240 0
1 26 55 239 -240 0
1 26 55 -239 240 0
1 26 55 -239 -240 0
26 -53 55 241 242 0
26 -53 55 241 -242 0
26 -53 55 -241 242 0
26 -53 55 -241 -242 0
18 -29 31 243 244 0
18 -29 31 243 -244 0
18 -29 31 -243 244 0
18 -29 31 -243 -244 0
-1 69 94 245 246 0
-1 69 94 245 -246 0
-1 69 94 -245 246 0
-1 69 94 -245 -246 0
23 69 -93 247 248 0
23 69 -93 247 -248 0
23 69 -93 -247 248 0
23 69 -93 -247 -248 0
-1 -23 69 249 250 0
-1 -23 69 249 -250 0
-1 -23 69 -249 250 0
-1 -23 69 -249 -250 0
-19 29 43 251 252 0
-19 29 43 251 -252 0
-19 29 43 -251 252 0
-19 29 43 -251 -252 0
33 37 62 253 254 0
33 37 62 253 -254 0
33 37 62 -253 254 0
33 37 62 -253 -254 0
-20 -33 62 255 256 0
-20 -33 62 255 -256 0
-20 -33 62 -255 256 0
-20 -33 62 -255 -256 0
-18 39 65 257 258 0
-18 39 65 257 -258 0
-18 39 65 -257 258 0
-18 39 65 -257 -258 0
45 51 -53 259 260 0
45 51 -53 259 -260 0
45 51 -53 -259 260 0
45 51 -53 -259 -260 0
-1 11 -28 261 262 0
-1 11 -28 261 -262 0
-1 11 -28 -261 262 0
-1 11 -28 -261 -262 0
18 33 84 263 264 0
18 33 84 263 -264 0
18 33 84 -263 264 0
18 33 84 -263 -264 0
-14 -52 84 265 266 0
-14 -52 84 265 -266 0
-14 -52 84 -265 266 0
-14 -52 84 -265 -266 0
7 -40 -53 267 268 0
7 -40 -53 267 -268 0
7 -40 -53 -267 268 0
7 -40 -53 -267 -268 0
-7 -17 -40 269 270 0
-7 -17 -40 269 -270 0
-7 -17 -40 -269 270 0
-7 -17 -40 -269 -270 0
-19 65 72 271 272 0
-19 65 72 271 -272 0
-19 65 72 -271 272 0
-19 65 72 -271 -272 0
-63 77 -85 273 274 0
-63 77 -85 273 -274 0
-63 77 -85 -273 274 0
-63 77 -85 -273 -274 0
27 -63 -77 275 276 0
27 -63 -77 275 -276 0
27 -63 -77 -275 276 0
27 -63 -77 -275 -276 0
-4 64 94 277 278 0
-4 64 94 277 -278 0
-4 64 94 -277 278 0
-4 64 94 -277 -278 0
22 -82 99 279 280 0
22 -82 99 279 -280 0
22 -82 99 -279 280 0
22 -82 99 -279 -280 0
-11 41 -99 281 282 0
-11 41 -99 281 -282 0
-11 41 -99 -281 282 0
-11 41 -99 -281 -282 0
-11 85 -99 283 284 0
-11 85 -99 283 -284 0
-11 85 -99 -283 284 0
-11 85 -99 -283 -284 0
4 -65 -87 285 286 0
4 -65 -87 285 -286 0
4 -65 -87 -285 286 0
4 -65 -87 -285 -286 0
17 37 100 287 288 0
17 37 100 287 -288 0
17 37 100 -287 288 0
17 37 100 -287 -288 0
25 -37 100 289 290 0
25 -37 100 289 -290 0
25 -37 100 -289 290 0
25 -37 100 -289 -290 0
17 -25 -37 291 292 0
17 -25 -37 291 -292 0
17 -25 -37 -291 292 0
17 -25 -37 -291 -292 0
83 -89 -100 293 294 0
83 -89 -100 293 -294 0
83 -89 -100 -293 294 0
83 -89 -100 -293 -294 0
15 17 -89 295 296 0
15 17 -89 295 -296 0
15 17 -89 -295 296 0
15 17 -89 -295 -296 0
-15 -83 -100 297 298 0
-15 -83 -100 297 -298 0
-15 -83 -100 -297 298 0
-15 -83 -100 -297 -298 0
-39 -74 -90 299 300 0
-39 -74 -90 299 -300 0
-39 -74 -90 -299 300 0
-39 -74 -90 -299 -300 0
19 -26 40 301 302 0
19 -26 40 301 -302 0
19 -26 40 -301 302 0
19 -26 40 -301 -302 0
41 -70 -99 303 304 0
41 -70 -99 303 -304 0
41 -70 -99 -303 304 0
41 -70 -99 -303 -304 0
-26 -41 -70 305 306 0
-26 -41 -70 305 -306 0
-26 -41 -70 -305 306 0
-26 -41 -70 -305 -306 0
-28 59 -62 307 308 0
-28 59 -62 307 -308 0
-28 59 -62 -307 308 0
-28 59 -62 -307 -308 0
4 78 90 309 310 0
4 78 90 309 -310 0
4 78 90 -309 310 0
4 78 90 -309 -310 0
4 21 78 311 312 0
4 21 78 311 -312 0
4 21 78 -311 312 0
4 21 78 -311 -312 0
39 -49 63 313 314 0
39 -49 63 313 -314 0
39 -49 63 -313 314 0
39 -49 63 -313 -314 0
-39 -49 -95 315 316 0
-39 -49 -95 315 -316 0
-39 -49 -95 -315 316 0
-39 -49 -95 -315 -316 0
48 -54 65 317 318 0
48 -54 65 317 -318 0
48 -54 65 -317 318 0
48 -54 65 -317 -318 0
60 82 98 319 320 0
60 82 98 319 -320 0
60 82 98 -319 320 0
60 82 98 -319 -320 0
49 -74 97 321 322 0
49 -74 97 321 -322 0
49 -74 97 -321 322 0
49 -74 97 -321 -322 0
-21 49 -97 323 324 0
-21 49 -97 323 -324 0
-21 49 -97 -323 324 0
-21 49 -97 -323 -324 0
-79 87 -88 325 326 0
-79 87 -88 325 -326 0
-79 87 -88 -325 326 0
-79 87 -88 -325 -326 0
21 45 -75 327 328 0
21 45 -75 327 -328 0
21 45 -75 -327 328 0
21 45 -75 -327 -328 0
16 -84 -89 329 330 0
16 -84 -89 329 -330 0
16 -84 -89 -329 330 0
16 -84 -89 -329 -330 0
-21 -46 63 331 332 0
-21 -46 63 331 -332 0
-21 -46 63 -331 332 0
-21 -46 63 -331 -332 0
14 16 -81 333 334 0
14 16 -81 333 -334 0
14 16 -81 -333 334 0
14 16 -81 -333 -334 0
-14 -81 -87 335 336 0
-14 -81 -87 335 -336 0
-14 -81 -87 -335 336 0
-14 -81 -87 -335 -336 0
-66 -67 -83 337 338 0
-66 -67 -83 337 -338 0
-66 -67 -83 -337 338 0
-66 -67 -83 -337 -338 0
-80 81 100 339 340 0
-80 81 100 339 -340 0
-80 81 100 -339 340 0
-80 81 100 -339 -340 0
2 -29 99 341 342 0
2 -29 99 341 -342 0
2 -29 99 -341 342 0
2 -29 99 -341 -342 0
-2 -39 99 343 344 0
-2 -39 99 343 -344 0
-2 -39 99 -343 344 0
-2 -39 99 -343 -344 0
-44 -64 -90 345 346 0
-44 -64 -90 345 -346 0
-44 -64 -90 -345 346 0
-44 -64 -90 -345 -346 0
-13 14 23 347 348 0
-13 14 23 347 -348 0
-13 14 23 -347 348 0
-13 14 23 -347 -348 0
-10 -45 -91 349 350 0
-10 -45 -91 349 -350 0
-10 -45 -91 -349 350 0
-10 -45 -91 -349 -350 0
10 40 73 351 352 0
10 40 73 351 -352 0
10 40 73 -351 352 0
10 40 73 -351 -352 0
40 -73 -76 353 354 0
40 -73 -76 353 -354 0
40 -73 -76 -353 354 0
40 -73 -76 -353 -354 0
22 -76 78 355 356 0
22 -76 78 355 -356 0
22 -76 78 -355 356 0
22 -76 78 -355 -356 0
21 -32 -57 357 358 0
21 -32 -57 357 -358 0
21 -32 -57 -357 358 0
21 -32 -57 -357 -358 0
-38 -64 86 359 360 0
-38 -64 86 359 -360 0
-38 -64 86 -359 360 0
-38 -64 86 -359 -360 0
-12 -15 54 361 362 0
-12 -15 54 361 -362 0
-12 -15 54 -361 362 0
-12 -15 54 -361 -362 0
-12 47 -69 363 364 0
-12 47 -69 363 -364 0
-12 47 -69 -363 364 0
-12 47 -69 -363 -364 0
47 -69 -82 365 366 0
47 -69 -82 365 -366 0
47 -69 -82 -365 366 0
47 -69 -82 -365 -366 0
-22 -23 32 367 368 0
-22 -23 32 367 -368 0
-22 -23 32 -367 368 0
-22 -23 32 -367 -368 0
-22 -23 -78 369 370 0
-22 -23 -78 369 -370 0
-22 -23 -78 -369 370 0
-22 -23 -78 -369 -370 0
-10 20 -50 371 372 0
-10 20 -50 371 -372 0
-10 20 -50 -371 372 0
-10 20 -50 -371 -372 0
-5 10 84 373 374 0
-5 10 84 373 -374 0
-5 10 84 -373 374 0
-5 10 84 -373 -374 0
23 -92 97 375 376 0
23 -92 97 375 -376 0
23 -92 97 -375 376 0
23 -92 97 -375 -376 0
-69 72 -78 377 378 0
-69 72 -78 377 -378 0
-69 72 -78 -377 378 0
-69 72 -78 -377 -378 0
1 11 -80 379 380 0
1 11 -80 379 -380 0
1 11 -80 -379 380 0
1 11 -80 -379 -380 0
-2 27 50 381 382 0
-2 27 50 381 -382 0
-2 27 50 -381 382 0
-2 27 50 -381 -382 0
-57 -61 -79 383 384 0
-57 -61 -79 383 -384 0
-57 -61 -79 -383 384 0
-57 -61 -79 -383 -384 0
43 76 -90 385 386 0
43 76 -90 385 -386 0
43 76 -90 -385 386 0
43 76 -90 -385 -386 0
-22 -49 -92 387 388 0
-22 -49 -92 387 -388 0
-22 -49 -92 -387 388 0
-22 -49 -92 -387 -388 0
26 43 -60 389 390 0
26 43 -60 389 -390 0
26 43 -60 -389 390 0
26 43 -60 -389 -390 0
-10 50 98 391 392 0
-10 50 98 391 -392 0
-10 50 98 -391 392 0
-10 50 98 -391 -392 0
10 -30 59 393 394 0
10 -30 59 393 -394 0
10 -30 59 -393 394 0
10 -30 59 -393 -394 0
-55 -72 -100 395 396 0
-55 -72 -100 395 -396 0
-55 -72 -100 -395 396 0
-55 -72 -100 -395 -396 0
-41 53 -78 397 398 0
-41 53 -78 397 -398 0
-41 53 -78 -397 398 0
-41 53 -78 -397 -398 0
38 -65 94 399 400 0
38 -65 94 399 -400 0
38 -65 94 -399 400 0
38 -65 94 -399 -400 0
38 -65 -94 401 402 0
38 -65 -94 401 -402 0
38 -65 -94 -401 402 0
38 -65 -94 -401 -402 0
29 -55 61 403 404 0
29 -55 61 403 -404 0
29 -55 61 -403 404 0
29 -55 61 -403 -404 0
-46 -48 59 405 406 0
-46 -48 59 405 -406 0
-46 -48 59 -405 406 0
-46 -48 59 -405 -406 0
53 73 90 407 408 0
53 73 90 407 -408 0
53 73 90 -407 408 0
53 73 90 -407 -408 0
1 -11 74 409 410 0
1 -11 74 409 -410 0
1 -11 74 -409 410 0
1 -11 74 -409 -410 0
15 76 82 411 412 0
15 76 82 411 -412 0
15 76 82 -411 412 0
15 76 82 -411 -412 0
-27 -82 -97 413 414 0
-27 -82 -97 413 -414 0
-27 -82 -97 -413 414 0
-27 -82 -97 -413 -414 0
-3 -36 -48 415 416 0
-3 -36 -48 415 -416 0
-3 -36 -48 -415 416 0
-3 -36 -48 -415 -416 0
28 -32 80 417 418 0
28 -32 80 417 -418 0
28 -32 80 -417 418 0
28 -32 80 -417 -418 0
9 -63 80 419 420 0
9 -63 80 419 -420 0
9 -63 80 -419 420 0
9 -63 80 -419 -420 0
70 73 89 421 422 0
70 73 89 421 -422 0
70 73 89 -421 422 0
70 73 89 -421 -422 0
-80 -91 93 423 424 0
-80 -91 93 423 -424 0
-80 -91 93 -423 424 0
-80 -91 93 -423 -424 0
22 -64 77 425 426 0
22 -64 77 425 -426 0
22 -64 77 -425 426 0
22 -64 77 -425 -426 0
66 72 -87 427 428 0
66 72 -87 427 -428 0
66 72 -87 -427 428 0
66 72 -87 -427 -428 0
-36 83 88 429 430 0
-36 83 88 429 -430 0
-36 83 88 -429 430 0
-36 83 88 -429 -430 0
24 -38 52 431 432 0
24 -38 52 431 -432 0
24 -38 52 -431 432 0
24 -38 52 -431 -432 0
-43 81 -96 433 434 0
-43 81 -96 433 -434 0
-43 81 -96 -433 434 0
-43 81 -96 -433 -434 0
-59 -62 81 435 436 0
-59 -62 81 435 -436 0
-59 -62 81 -435 436 0
-59 -62 81 -435 -436 0
48 66 71 437 438 0
48 66 71 437 -438 0
48 66 71 -437 438 0
48 66 71 -437 -438 0
-2 48 63 439 440 0
-2 48 63 439 -440 0
-2 48 63 -439 440 0
-2 48 63 -439 -440 0
29 -83 93 441 442 0
29 -83 93 441 -442 0
29 -83 93 -441 442 0
29 -83 93 -441 -442 0
-16 25 -72 443 444 0
-16 25 -72 443 -444 0
-16 25 -72 -443 444 0
-16 25 -72 -443 -444 0
-27 57 -84 445 446 0
-27 57 -84 445 -446 0
-27 57 -84 -445 446 0
-27 57 -84 -445 -446 0
-5 77 88 447 448 0
-5 77 88 447 -448 0
-5 77 88 -447 448 0
-5 77 88 -447 -448 0
-5 -59 88 449 450 0
-5 -59 88 449 -450 0
-5 -59 88 -449 450 0
-5 -59 88 -449 -450 0
15 44 -45 451 452 0
15 44 -45 451 -452 0
15 44 -45 -451 452 0
15 44 -45 -451 -452 0
13 -84 89 453 454 0
13 -84 89 453 -454 0
13 -84 89 -453 454 0
13 -84 89 -453 -454 0
47 -48 83 455 456 0
47 -48 83 455 -456 0
47 -48 83 -455 456 0
47 -48 83 -455 -456 0
-14 -44 54 457 458 0
-14 -44 54 457 -458 0
-14 -44 54 -457 458 0
-14 -44 54 -457 -458 0
-30 31 64 459 460 0
-30 31 64 459 -460 0
-30 31 64 -459 460 0
-30 31 64 -459 -460 0
24 70 75 461 462 0
24 70 75 461 -462 0
24 70 75 -461 462 0
24 70 75 -461 -462 0
-15 -32 92 463 464 0
-15 -32 92 463 -464 0
-15 -32 92 -463 464 0
-15 -32 92 -463 -464 0
-16 -58 74 465 466 0
-16 -58 74 465 -466 0
-16 -58 74 -465 466 0
-16 -58 74 -465 -466 0
-4 54 -77 467 468 0
-4 54 -77 467 -468 0
-4 54 -77 -467 468 0
-4 54 -77 -467 -468 0
-43 57 60 469 470 0
-43 57 60 469 -470 0
-43 57 60 -469 470 0
-43 57 60 -469 -470 0
-16 61 64 471 472 0
-16 61 64 471 -472 0
-16 61 64 -471 472 0
-16 61 64 -471 -472 0
-59 79 95 473 474 0
-59 79 95 473 -474 0
-59 79 95 -473 474 0
-59 79 95 -473 -474 0
-4 -61 -88 475 476 0
-4 -61 -88 475 -476 0
-4 -61 -88 -475 476 0
-4 -61 -88 -475 -476 0
58 74 80 477 478 0
58 74 80 477 -478 0
58 74 80 -477 478 0
58 74 80 -477 -478 0
49 -58 82 479 480 0
49 -58 82 479 -480 0
49 -58 82 -479 480 0
49 -58 82 -479 -480 0
16 44 -57 481 482 0
16 44 -57 481 -482 0
16 44 -57 -481 482 0
16 44 -57 -481 -482 0
2 89 95 483 484 0
2 89 95 483 -484 0
2 89 95 -483 484 0
2 89 95 -483 -484 0
-3 -27 -81 485 486 0
-3 -27 -81 485 -486 0
-3 -27 -81 -485 486 0
-3 -27 -81 -485 -486 0
24 75 79 487 488 0
24 75 79 487 -488 0
24 75 79 -487 488 0
24 75 79 -487 -488 0
44 96 97 489 490 0
44 96 97 489 -490 0
44 96 97 -489 490 0
44 96 97 -489 -490 0
31 -38 57 491 492 0
31 -38 57 491 -492 0
31 -38 57 -491 492 0
31 -38 57 -491 -492 0
14 -43 -72 493 494 0
14 -43 -72 493 -494 0
14 -43 -72 -493 494 0
14 -43 -72 -493 -494 0
38 76 96 495 496 0
38 76 96 495 -496 0
38 76 96 -495 496 0
38 76 96 -495 -496 0
30 32 96 497 498 0
30 32 96 497 -498 0
30 32 96 -497 498 0
30 32 96 -497 -498 0
-21 35 56 499 500 0
-21 35 56 499 -500 0
-21 35 56 -499 500 0
-21 35 56 -499 -500 0
